
Gurobi 11.0.1 (linux64, Java) logging started Sa 30 Mär 2024 20:13:41


Gurobi 11.0.1 (linux64, Java) logging started Sa 30 Mär 2024 20:15:56


Gurobi 11.0.1 (linux64, Java) logging started Mi 03 Apr 2024 21:01:27


Gurobi 11.0.1 (linux64) logging started Mi 03 Apr 2024 21:03:18

Set parameter LogFile to value "LP.log"

Gurobi 11.0.1 (linux64, Java) logging started Mi 03 Apr 2024 21:03:40


Gurobi 11.0.1 (linux64, Java) logging started Mi 03 Apr 2024 21:06:52


Gurobi 11.0.1 (linux64, Java) logging started Fr 05 Apr 2024 17:35:00


Gurobi 11.0.1 (linux64, Java) logging started Fr 05 Apr 2024 18:39:09


Gurobi 11.0.1 (linux64, Java) logging started Fr 05 Apr 2024 18:58:56


Gurobi 11.0.1 (linux64, Java) logging started Fr 05 Apr 2024 19:01:01


Gurobi 11.0.1 (linux64, Java) logging started Fr 05 Apr 2024 19:09:06


Gurobi 11.0.1 (linux64, Java) logging started Fr 05 Apr 2024 19:09:31


Gurobi 11.0.1 (linux64, Java) logging started Fr 05 Apr 2024 19:10:25


Gurobi 11.0.1 (linux64, Java) logging started Fr 05 Apr 2024 19:11:18


Gurobi 11.0.1 (win64, Java) logging started Fri Apr  5 19:15:33 2024

